NAME : ro11
TYPE : TSP
COMMENT : Comentariu
DIMENSION : 11
EDGE_WEIGHT_TYPE : EUC_2D
NODE_COORD_SECTION
1 23.61 46.78
2 28.04 45.44
3 25.6 45.65
4 21.31 46.19
5 24.15 45.79
6 26.82 45.15
7 21.94 47.05
8 24.88 44.86
9 24.56 46.54
10 26.67 47.74
11 27.58 47.16
EOF